clingo version 5.7.1
Reading from stdin
Solving...
SATISFIABLE

Models       : 1130531
Calls        : 1
Time         : 1379.867s (Solving: 1282.86s 1st Model: 0.23s Unsat: 0.03s)
CPU Time     : 1378.958s
